
  12    4
  10   10   10   10

   0   0   0   0   0   3 2 5 7 
   7  10  10  10  10   1 3 
   2  10  10  10  10   1 4 
   7  10  10  10  10   2 9 6 
   3  10  10  10  10   2 9 6 
   1  10  10  10  10   2 11 8 
   7  10  10  10  10   2 11 8 
   7  10  10  10  10   1 10 
  10  10  10  10  10   1 10 
   8  10  10  10  10   1 12
   2  10  10  10  10   1 12
   0   0   0   0   0   0 
